p cep 171 4211
1 5
1 7
1 8
1 9
1 10
1 11
1 14
1 19
1 20
1 23
1 29
1 30
1 37
1 44
1 45
1 47
1 49
1 64
1 66
1 67
1 70
1 72
1 73
1 76
1 79
1 85
1 93
1 94
1 97
1 98
1 99
1 100
1 107
1 110
1 115
1 118
1 125
1 126
1 134
1 135
1 137
1 138
1 141
1 145
1 152
1 153
1 158
1 162
1 165
1 166
1 167
1 168
1 171
2 5
2 6
2 8
2 13
2 15
2 18
2 21
2 27
2 34
2 38
2 46
2 53
2 54
2 55
2 56
2 63
2 68
2 72
2 74
2 75
2 77
2 78
2 80
2 81
2 94
2 95
2 98
2 101
2 102
2 103
2 108
2 114
2 116
2 119
2 123
2 126
2 129
2 131
2 133
2 142
2 150
2 151
2 152
2 155
2 157
2 169
2 170
2 171
3 8
3 16
3 20
3 22
3 24
3 25
3 28
3 31
3 39
3 41
3 59
3 61
3 62
3 71
3 72
3 76
3 82
3 83
3 87
3 88
3 89
3 98
3 102
3 105
3 109
3 110
3 113
3 117
3 118
3 121
3 122
3 124
3 127
3 130
3 132
3 139
3 140
3 143
3 147
3 149
3 156
3 158
3 160
3 164
3 171
4 7
4 8
4 9
4 10
4 14
4 19
4 20
4 29
4 31
4 37
4 48
4 62
4 66
4 67
4 70
4 72
4 76
4 79
4 84
4 95
4 97
4 98
4 99
4 104
4 106
4 108
4 110
4 115
4 118
4 135
4 137
4 140
4 141
4 143
4 153
4 158
4 166
4 167
4 168
4 171
5 6
5 8
5 13
5 15
5 18
5 19
5 21
5 26
5 27
5 32
5 34
5 38
5 45
5 46
5 47
5 49
5 53
5 54
5 55
5 56
5 62
5 63
5 68
5 70
5 74
5 75
5 77
5 78
5 80
5 81
5 86
5 92
5 94
5 95
5 98
5 101
5 103
5 114
5 116
5 119
5 123
5 126
5 129
5 131
5 133
5 134
5 135
5 138
5 141
5 142
5 145
5 150
5 151
5 152
5 155
5 157
5 169
5 170
6 12
6 13
6 15
6 18
6 21
6 26
6 27
6 32
6 33
6 34
6 38
6 46
6 53
6 54
6 55
6 56
6 63
6 68
6 74
6 75
6 77
6 78
6 80
6 81
6 92
6 96
6 101
6 102
6 103
6 114
6 116
6 119
6 123
6 126
6 129
6 131
6 133
6 141
6 142
6 146
6 150
6 151
6 152
6 155
6 157
6 158
6 169
6 170
7 8
7 9
7 10
7 11
7 14
7 19
7 20
7 26
7 29
7 30
7 31
7 37
7 48
7 50
7 62
7 64
7 66
7 67
7 70
7 72
7 73
7 76
7 79
7 84
7 85
7 89
7 95
7 97
7 98
7 99
7 102
7 104
7 106
7 108
7 110
7 113
7 118
7 125
7 134
7 135
7 137
7 138
7 140
7 141
7 143
7 145
7 153
7 158
7 165
7 166
7 167
7 168
7 171
8 9
8 10
8 11
8 12
8 14
8 17
8 19
8 20
8 21
8 22
8 23
8 25
8 26
8 27
8 28
8 29
8 30
8 31
8 32
8 33
8 34
8 35
8 38
8 39
8 41
8 42
8 43
8 44
8 45
8 46
8 47
8 48
8 49
8 50
8 53
8 54
8 55
8 56
8 58
8 60
8 62
8 64
8 65
8 66
8 67
8 69
8 70
8 71
8 72
8 73
8 74
8 75
8 76
8 77
8 78
8 79
8 80
8 82
8 83
8 84
8 85
8 87
8 88
8 89
8 91
8 92
8 93
8 94
8 95
8 96
8 97
8 98
8 99
8 100
8 101
8 102
8 103
8 104
8 106
8 107
8 108
8 110
8 113
8 114
8 115
8 118
8 124
8 125
8 126
8 127
8 129
8 130
8 131
8 132
8 134
8 135
8 137
8 138
8 140
8 141
8 143
8 145
8 147
8 150
8 151
8 152
8 153
8 154
8 155
8 157
8 158
8 162
8 165
8 166
8 167
8 168
8 169
8 170
8 171
9 10
9 11
9 14
9 19
9 20
9 26
9 29
9 30
9 31
9 37
9 48
9 50
9 62
9 64
9 66
9 67
9 70
9 72
9 73
9 76
9 79
9 84
9 85
9 89
9 95
9 97
9 98
9 99
9 102
9 104
9 106
9 108
9 110
9 118
9 125
9 134
9 135
9 137
9 138
9 140
9 141
9 143
9 145
9 153
9 158
9 165
9 166
9 167
9 168
9 171
10 11
10 14
10 19
10 20
10 23
10 29
10 30
10 32
10 34
10 35
10 36
10 37
10 44
10 45
10 46
10 49
10 50
10 54
10 55
10 62
10 64
10 66
10 67
10 70
10 72
10 73
10 76
10 79
10 85
10 93
10 94
10 95
10 97
10 98
10 99
10 101
10 103
10 104
10 107
10 110
10 115
10 116
10 123
10 125
10 126
10 131
10 134
10 135
10 137
10 138
10 140
10 141
10 142
10 145
10 150
10 153
10 157
10 158
10 162
10 165
10 166
10 167
10 168
10 171
11 19
11 20
11 23
11 29
11 30
11 31
11 34
11 37
11 44
11 45
11 46
11 49
11 56
11 62
11 64
11 66
11 67
11 70
11 72
11 73
11 76
11 85
11 93
11 94
11 95
11 97
11 98
11 99
11 103
11 106
11 107
11 110
11 115
11 118
11 125
11 134
11 135
11 137
11 138
11 140
11 141
11 143
11 145
11 153
11 157
11 158
11 162
11 165
11 166
11 167
11 168
11 171
12 13
12 14
12 18
12 20
12 26
12 27
12 30
12 31
12 32
12 33
12 36
12 38
12 39
12 43
12 47
12 50
12 52
12 53
12 55
12 58
12 62
12 69
12 71
12 72
12 74
12 76
12 77
12 79
12 80
12 90
12 91
12 92
12 95
12 96
12 98
12 100
12 101
12 102
12 110
12 111
12 114
12 116
12 118
12 119
12 123
12 124
12 126
12 128
12 131
12 136
12 140
12 141
12 142
12 143
12 145
12 148
12 154
12 155
12 158
12 161
12 162
12 169
12 170
12 171
13 18
13 21
13 26
13 27
13 32
13 34
13 38
13 40
13 46
13 53
13 54
13 55
13 56
13 63
13 68
13 69
13 75
13 76
13 78
13 80
13 94
13 96
13 100
13 101
13 103
13 114
13 116
13 123
13 126
13 129
13 131
13 142
13 144
13 146
13 150
13 151
13 152
13 155
13 157
13 169
13 170
14 19
14 20
14 22
14 26
14 30
14 31
14 32
14 37
14 39
14 47
14 48
14 62
14 64
14 66
14 67
14 69
14 70
14 71
14 72
14 73
14 79
14 80
14 84
14 85
14 92
14 93
14 95
14 96
14 97
14 98
14 99
14 100
14 102
14 104
14 106
14 108
14 110
14 115
14 118
14 124
14 125
14 134
14 135
14 136
14 137
14 138
14 140
14 141
14 143
14 153
14 154
14 158
14 165
14 166
14 167
14 168
14 171
15 18
15 21
15 26
15 27
15 32
15 33
15 34
15 38
15 46
15 53
15 54
15 55
15 56
15 63
15 68
15 69
15 74
15 75
15 77
15 78
15 80
15 81
15 86
15 92
15 94
15 96
15 100
15 101
15 103
15 114
15 116
15 119
15 123
15 126
15 128
15 129
15 131
15 133
15 136
15 142
15 146
15 150
15 152
15 155
15 157
15 169
15 170
16 22
16 24
16 25
16 31
16 57
16 59
16 61
16 87
16 105
16 109
16 113
16 117
16 118
16 120
16 121
16 122
16 130
16 143
16 147
16 149
16 156
16 160
16 163
16 164
17 23
17 25
17 28
17 29
17 31
17 34
17 35
17 38
17 41
17 44
17 45
17 46
17 49
17 56
17 62
17 64
17 67
17 76
17 79
17 80
17 83
17 89
17 93
17 98
17 101
17 102
17 103
17 110
17 112
17 114
17 118
17 125
17 126
17 127
17 131
17 140
17 141
17 143
17 153
17 157
17 158
17 165
18 21
18 34
18 36
18 38
18 46
18 47
18 53
18 54
18 55
18 56
18 58
18 60
18 63
18 68
18 74
18 77
18 80
18 81
18 98
18 101
18 103
18 108
18 114
18 116
18 119
18 123
18 126
18 129
18 131
18 133
18 140
18 141
18 142
18 150
18 152
18 155
18 157
18 158
18 162
18 169
18 170
19 20
19 23
19 29
19 30
19 34
19 36
19 37
19 44
19 45
19 46
19 47
19 49
19 56
19 62
19 64
19 66
19 67
19 70
19 73
19 76
19 79
19 80
19 85
19 93
19 94
19 95
19 97
19 98
19 99
19 100
19 102
19 103
19 104
19 107
19 108
19 110
19 115
19 118
19 125
19 126
19 134
19 135
19 137
19 138
19 140
19 141
19 143
19 145
19 152
19 153
19 157
19 158
19 162
19 165
19 166
19 167
19 168
20 23
20 26
20 29
20 30
20 31
20 32
20 37
20 39
20 44
20 45
20 47
20 48
20 49
20 62
20 64
20 66
20 67
20 69
20 70
20 71
20 72
20 73
20 76
20 79
20 84
20 85
20 92
20 93
20 95
20 97
20 98
20 99
20 100
20 102
20 104
20 106
20 107
20 110
20 115
20 118
20 124
20 125
20 134
20 135
20 137
20 138
20 140
20 141
20 143
20 145
20 153
20 158
20 165
20 166
20 167
20 168
20 171
21 27
21 34
21 38
21 46
21 53
21 54
21 55
21 56
21 63
21 68
21 74
21 75
21 77
21 78
21 80
21 81
21 86
21 94
21 101
21 102
21 103
21 114
21 116
21 119
21 123
21 126
21 129
21 131
21 133
21 142
21 146
21 150
21 151
21 152
21 155
21 157
21 169
21 170
22 25
22 26
22 28
22 31
22 35
22 39
22 41
22 42
22 59
22 60
22 61
22 62
22 65
22 71
22 72
22 76
22 79
22 82
22 83
22 84
22 87
22 88
22 89
22 92
22 95
22 96
22 98
22 99
22 102
22 105
22 109
22 110
22 112
22 113
22 117
22 118
22 122
22 124
22 127
22 130
22 132
22 140
22 141
22 143
22 147
22 149
22 153
22 156
22 158
22 160
22 163
22 164
22 171
23 29
23 30
23 31
23 34
23 35
23 37
23 44
23 45
23 46
23 47
23 49
23 62
23 64
23 66
23 70
23 72
23 73
23 76
23 85
23 89
23 92
23 93
23 94
23 97
23 98
23 99
23 100
23 101
23 102
23 103
23 104
23 107
23 108
23 115
23 118
23 125
23 126
23 131
23 134
23 135
23 138
23 140
23 141
23 143
23 145
23 150
23 152
23 153
23 157
23 158
23 162
23 165
23 166
23 168
23 171
24 31
24 41
24 57
24 59
24 83
24 89
24 105
24 109
24 113
24 117
24 121
24 122
24 127
24 130
24 132
24 143
24 156
24 164
25 28
25 31
25 41
25 42
25 59
25 61
25 62
25 65
25 72
25 82
25 83
25 87
25 88
25 89
25 102
25 110
25 113
25 118
25 121
25 124
25 127
25 130
25 132
25 140
25 143
25 147
25 156
25 158
25 171
26 27
26 31
26 32
26 33
26 36
26 39
26 43
26 44
26 47
26 50
26 52
26 53
26 55
26 58
26 60
26 62
26 63
26 66
26 67
26 69
26 71
26 72
26 79
26 80
26 84
26 90
26 91
26 92
26 96
26 100
26 101
26 102
26 110
26 111
26 119
26 123
26 124
26 126
26 128
26 131
26 136
26 137
26 140
26 141
26 142
26 143
26 145
26 148
26 152
26 153
26 154
26 155
26 158
26 161
26 162
26 166
26 168
26 169
26 170
26 171
27 32
27 34
27 38
27 40
27 46
27 53
27 55
27 56
27 68
27 69
27 75
27 78
27 80
27 94
27 95
27 98
27 101
27 103
27 114
27 118
27 123
27 126
27 129
27 131
27 142
27 152
27 155
27 157
27 170
28 39
28 41
28 61
28 76
28 83
28 88
28 89
28 98
28 102
28 110
28 113
28 118
28 124
28 127
28 130
28 140
28 141
28 143
28 158
29 30
29 37
29 44
29 45
29 49
29 56
29 62
29 64
29 66
29 67
29 70
29 72
29 73
29 85
29 93
29 94
29 95
29 97
29 98
29 99
29 104
29 106
29 107
29 115
29 118
29 125
29 134
29 135
29 137
29 138
29 140
29 141
29 145
29 153
29 158
29 165
29 166
29 167
29 168
29 171
30 35
30 37
30 44
30 45
30 49
30 62
30 64
30 66
30 67
30 70
30 73
30 76
30 85
30 93
30 97
30 98
30 99
30 107
30 110
30 115
30 125
30 134
30 135
30 137
30 138
30 140
30 145
30 153
30 158
30 165
30 166
30 167
30 168
31 32
31 33
31 35
31 37
31 38
31 39
31 41
31 42
31 44
31 45
31 47
31 48
31 49
31 52
31 54
31 56
31 57
31 59
31 60
31 61
31 62
31 64
31 65
31 66
31 67
31 69
31 70
31 71
31 72
31 76
31 79
31 80
31 82
31 83
31 84
31 87
31 88
31 89
31 90
31 91
31 92
31 93
31 95
31 96
31 97
31 98
31 99
31 100
31 101
31 102
31 104
31 105
31 106
31 109
31 110
31 112
31 113
31 117
31 118
31 121
31 122
31 124
31 125
31 127
31 128
31 130
31 131
31 132
31 136
31 137
31 140
31 141
31 143
31 147
31 149
31 152
31 153
31 154
31 156
31 158
31 160
31 164
31 166
31 167
31 168
31 171
32 33
32 36
32 38
32 39
32 43
32 47
32 50
32 52
32 55
32 60
32 62
32 69
32 74
32 77
32 79
32 80
32 84
32 85
32 90
32 91
32 92
32 96
32 98
32 100
32 101
32 102
32 110
32 111
32 114
32 119
32 123
32 124
32 126
32 128
32 131
32 136
32 140
32 142
32 143
32 145
32 148
32 153
32 154
32 158
32 161
32 162
32 169
33 34
33 36
33 43
33 46
33 47
33 52
33 55
33 62
33 63
33 69
33 72
33 75
33 78
33 79
33 80
33 84
33 90
33 91
33 92
33 95
33 96
33 98
33 100
33 101
33 102
33 103
33 110
33 111
33 114
33 116
33 119
33 123
33 124
33 128
33 131
33 136
33 140
33 141
33 148
33 152
33 154
33 157
33 161
33 162
33 171
34 38
34 44
34 45
34 46
34 49
34 53
34 54
34 55
34 56
34 62
34 63
34 68
34 71
34 74
34 75
34 77
34 78
34 80
34 81
34 91
34 94
34 95
34 98
34 101
34 102
34 103
34 108
34 114
34 116
34 119
34 123
34 125
34 126
34 129
34 131
34 133
34 141
34 142
34 150
34 151
34 152
34 155
34 157
34 169
34 170
35 38
35 41
35 44
35 45
35 49
35 56
35 62
35 71
35 72
35 76
35 79
35 80
35 83
35 85
35 89
35 98
35 101
35 102
35 104
35 110
35 112
35 113
35 114
35 118
35 124
35 125
35 126
35 127
35 131
35 140
35 141
35 142
35 143
35 155
35 158
35 171
36 43
36 47
36 52
36 53
36 55
36 62
36 69
36 85
36 90
36 91
36 92
36 96
36 98
36 100
36 101
36 102
36 108
36 110
36 124
36 126
36 128
36 136
36 143
36 148
36 154
36 161
36 162
36 169
36 170
37 44
37 45
37 48
37 49
37 64
37 66
37 67
37 70
37 73
37 85
37 93
37 97
37 98
37 99
37 104
37 107
37 115
37 125
37 134
37 135
37 137
37 138
37 140
37 141
37 145
37 153
37 165
37 167
37 168
38 40
38 46
38 47
38 53
38 54
38 55
38 56
38 63
38 68
38 74
38 75
38 76
38 77
38 78
38 79
38 80
38 81
38 92
38 95
38 98
38 101
38 103
38 114
38 116
38 118
38 119
38 123
38 124
38 126
38 129
38 131
38 133
38 136
38 141
38 142
38 143
38 150
38 152
38 154
38 155
38 157
38 161
38 169
38 170
39 41
39 52
39 60
39 61
39 62
39 71
39 72
39 76
39 79
39 82
39 83
39 84
39 88
39 89
39 92
39 95
39 96
39 97
39 98
39 100
39 102
39 110
39 113
39 118
39 124
39 127
39 128
39 140
39 141
39 143
39 153
39 158
39 171
40 56
40 80
40 101
40 131
40 142
41 42
41 56
41 59
41 61
41 62
41 65
41 71
41 72
41 76
41 79
41 82
41 83
41 87
41 88
41 89
41 95
41 98
41 102
41 105
41 110
41 113
41 117
41 118
41 121
41 122
41 124
41 127
41 130
41 132
41 140
41 141
41 143
41 147
41 156
41 158
41 169
41 171
42 62
42 65
42 76
42 79
42 82
42 83
42 98
42 102
42 110
42 113
42 118
42 124
42 127
42 140
42 143
42 153
42 158
43 47
43 50
43 52
43 55
43 60
43 69
43 90
43 91
43 92
43 96
43 98
43 100
43 101
43 102
43 111
43 119
43 124
43 126
43 128
43 136
43 140
43 143
43 145
43 148
43 154
43 155
43 161
43 162
44 45
44 46
44 47
44 49
44 62
44 64
44 66
44 70
44 72
44 73
44 76
44 85
44 89
44 92
44 93
44 94
44 97
44 98
44 99
44 100
44 101
44 102
44 103
44 104
44 107
44 108
44 115
44 118
44 125
44 126
44 131
44 134
44 135
44 138
44 140
44 141
44 143
44 145
44 150
44 151
44 152
44 153
44 157
44 158
44 162
44 165
44 166
44 168
44 171
45 46
45 47
45 49
45 62
45 64
45 66
45 70
45 72
45 73
45 76
45 85
45 92
45 93
45 94
45 97
45 98
45 99
45 100
45 101
45 102
45 103
45 104
45 107
45 108
45 115
45 118
45 125
45 126
45 131
45 134
45 135
45 138
45 140
45 141
45 143
45 145
45 150
45 152
45 153
45 157
45 158
45 162
45 165
45 166
45 168
45 171
46 49
46 53
46 54
46 55
46 56
46 62
46 63
46 68
46 71
46 74
46 75
46 77
46 78
46 80
46 81
46 91
46 94
46 95
46 98
46 101
46 102
46 103
46 108
46 114
46 116
46 119
46 123
46 125
46 126
46 129
46 131
46 133
46 141
46 142
46 150
46 151
46 152
46 155
46 157
46 169
46 170
47 49
47 50
47 52
47 53
47 55
47 58
47 64
47 69
47 70
47 79
47 80
47 84
47 90
47 91
47 92
47 95
47 96
47 100
47 101
47 108
47 110
47 114
47 119
47 124
47 126
47 128
47 134
47 135
47 136
47 138
47 140
47 143
47 148
47 151
47 152
47 154
47 158
47 161
47 162
47 165
47 169
47 170
48 62
48 67
48 72
48 76
48 97
48 99
48 104
48 106
48 110
48 113
48 137
48 140
48 141
48 143
48 153
48 158
48 166
48 167
48 171
49 62
49 64
49 66
49 70
49 72
49 73
49 76
49 85
49 93
49 94
49 97
49 98
49 99
49 100
49 101
49 102
49 103
49 104
49 107
49 108
49 115
49 118
49 125
49 126
49 131
49 134
49 135
49 138
49 140
49 141
49 143
49 145
49 150
49 151
49 152
49 153
49 157
49 158
49 162
49 165
49 166
49 168
49 171
50 58
50 60
50 67
50 69
50 79
50 94
50 95
50 96
50 97
50 98
50 100
50 101
50 106
50 108
50 113
50 131
50 137
50 141
50 143
50 154
50 162
50 167
51 57
51 59
51 121
52 55
52 62
52 69
52 90
52 91
52 92
52 96
52 100
52 101
52 110
52 111
52 128
52 136
52 140
52 148
52 154
52 158
52 161
52 162
53 54
53 55
53 56
53 68
53 72
53 79
53 80
53 82
53 92
53 94
53 95
53 96
53 100
53 101
53 102
53 103
53 110
53 114
53 116
53 118
53 119
53 123
53 124
53 126
53 129
53 131
53 142
53 144
53 150
53 151
53 152
53 153
53 155
53 157
53 169
53 170
53 171
54 55
54 56
54 62
54 63
54 68
54 74
54 75
54 76
54 77
54 78
54 80
54 81
54 95
54 101
54 103
54 110
54 114
54 116
54 119
54 123
54 124
54 126
54 129
54 131
54 133
54 136
54 140
54 142
54 146
54 150
54 151
54 152
54 154
54 155
54 157
54 158
54 162
55 56
55 62
55 63
55 68
55 69
55 72
55 74
55 75
55 76
55 77
55 78
55 80
55 81
55 84
55 85
55 90
55 91
55 92
55 94
55 95
55 96
55 98
55 100
55 101
55 102
55 103
55 114
55 116
55 118
55 119
55 123
55 126
55 128
55 129
55 131
55 133
55 136
55 141
55 142
55 146
55 150
55 151
55 152
55 154
55 155
55 157
55 158
55 161
55 162
55 169
55 170
55 171
56 62
56 63
56 68
56 74
56 77
56 79
56 80
56 81
56 83
56 92
56 94
56 95
56 98
56 101
56 102
56 103
56 110
56 114
56 116
56 123
56 126
56 127
56 129
56 131
56 133
56 140
56 141
56 142
56 143
56 150
56 152
56 155
56 157
56 169
56 170
57 59
57 61
57 102
57 105
57 109
57 118
57 121
57 122
57 130
57 156
58 76
58 79
58 80
58 91
58 94
58 95
58 96
58 100
58 108
58 110
59 61
59 83
59 87
59 89
59 102
59 105
59 109
59 117
59 120
59 121
59 122
59 127
59 130
59 143
59 147
59 149
59 156
59 159
59 160
59 163
59 164
60 72
60 79
60 80
60 84
60 92
60 95
60 98
60 99
60 100
60 108
60 110
60 118
60 124
60 140
60 141
60 153
60 158
60 166
60 169
60 170
60 171
61 82
61 83
61 87
61 89
61 102
61 105
61 109
61 113
61 117
61 118
61 121
61 122
61 127
61 143
61 147
61 160
61 164
62 64
62 65
62 66
62 67
62 70
62 71
62 72
62 76
62 79
62 82
62 83
62 84
62 87
62 89
62 92
62 93
62 95
62 96
62 97
62 98
62 99
62 100
62 101
62 102
62 103
62 104
62 106
62 110
62 112
62 113
62 114
62 115
62 116
62 118
62 124
62 125
62 126
62 127
62 130
62 131
62 132
62 135
62 136
62 137
62 140
62 141
62 143
62 147
62 153
62 154
62 157
62 158
62 161
62 165
62 166
62 167
62 168
62 169
62 171
63 68
63 74
63 77
63 80
63 81
63 92
63 98
63 101
63 102
63 103
63 114
63 116
63 119
63 123
63 126
63 129
63 131
63 133
63 140
63 150
63 152
63 154
63 157
63 169
63 170
64 66
64 67
64 70
64 72
64 73
64 79
64 92
64 93
64 94
64 95
64 97
64 98
64 99
64 101
64 107
64 108
64 110
64 115
64 118
64 125
64 134
64 135
64 137
64 138
64 140
64 141
64 145
64 153
64 154
64 158
64 165
64 166
64 167
64 168
64 171
65 76
65 79
65 82
65 83
65 98
65 102
65 110
65 113
65 118
65 124
65 127
65 140
65 143
65 158
66 67
66 70
66 73
66 85
66 92
66 93
66 95
66 96
66 97
66 98
66 99
66 100
66 102
66 104
66 106
66 107
66 110
66 115
66 124
66 125
66 134
66 135
66 137
66 138
66 140
66 141
66 145
66 153
66 158
66 165
66 166
66 167
66 168
67 70
67 72
67 73
67 76
67 79
67 85
67 89
67 92
67 95
67 96
67 97
67 99
67 104
67 106
67 108
67 110
67 115
67 118
67 125
67 134
67 135
67 137
67 138
67 140
67 141
67 143
67 145
67 153
67 158
67 165
67 166
67 167
67 168
67 171
68 74
68 75
68 77
68 78
68 80
68 81
68 85
68 86
68 94
68 95
68 96
68 101
68 102
68 103
68 110
68 114
68 116
68 119
68 123
68 124
68 126
68 129
68 131
68 133
68 142
68 146
68 151
68 152
68 155
68 157
68 169
68 170
69 79
69 80
69 84
69 90
69 91
69 92
69 96
69 100
69 101
69 102
69 110
69 111
69 119
69 123
69 124
69 126
69 128
69 131
69 136
69 141
69 142
69 143
69 148
69 153
69 154
69 158
69 161
69 162
69 169
70 73
70 76
70 79
70 85
70 93
70 94
70 95
70 97
70 98
70 99
70 100
70 102
70 104
70 107
70 110
70 115
70 118
70 125
70 126
70 134
70 135
70 137
70 138
70 140
70 145
70 152
70 158
70 162
70 165
70 166
70 167
70 168
71 72
71 79
71 80
71 83
71 84
71 87
71 89
71 95
71 97
71 98
71 100
71 101
71 102
71 103
71 106
71 110
71 113
71 118
71 124
71 127
71 131
71 140
71 141
71 143
71 147
71 157
71 158
71 171
72 73
72 75
72 76
72 78
72 79
72 80
72 82
72 83
72 84
72 87
72 89
72 93
72 94
72 95
72 96
72 98
72 99
72 102
72 107
72 110
72 113
72 114
72 115
72 118
72 121
72 124
72 125
72 126
72 127
72 131
72 132
72 134
72 135
72 137
72 138
72 140
72 141
72 143
72 147
72 151
72 152
72 153
72 155
72 158
72 165
72 166
72 171
73 85
73 93
73 95
73 98
73 99
73 107
73 115
73 125
73 131
73 134
73 135
73 137
73 138
73 141
73 145
73 153
73 158
73 165
73 167
73 168
73 171
74 75
74 77
74 78
74 80
74 81
74 86
74 92
74 94
74 100
74 101
74 103
74 114
74 116
74 119
74 126
74 129
74 131
74 133
74 142
74 146
74 150
74 151
74 152
74 157
74 169
74 170
75 77
75 78
75 80
75 81
75 94
75 95
75 101
75 103
75 114
75 116
75 119
75 123
75 129
75 131
75 133
75 142
75 150
75 151
75 152
75 157
75 171
76 79
76 80
76 82
76 83
76 84
76 85
76 88
76 89
76 91
76 94
76 95
76 96
76 97
76 98
76 99
76 102
76 104
76 106
76 108
76 110
76 113
76 114
76 115
76 118
76 124
76 125
76 127
76 131
76 132
76 134
76 135
76 136
76 137
76 138
76 140
76 141
76 143
76 153
76 155
76 158
76 166
76 167
76 171
77 78
77 80
77 81
77 86
77 92
77 94
77 100
77 101
77 103
77 114
77 116
77 119
77 126
77 129
77 131
77 133
77 142
77 146
77 150
77 151
77 152
77 157
77 169
77 170
78 80
78 81
78 94
78 95
78 101
78 103
78 114
78 116
78 119
78 123
78 129
78 131
78 133
78 142
78 150
78 151
78 152
78 157
78 171
79 80
79 82
79 83
79 84
79 88
79 89
79 91
79 92
79 95
79 96
79 97
79 98
79 100
79 101
79 102
79 106
79 108
79 110
79 113
79 118
79 124
79 125
79 126
79 127
79 128
79 132
79 134
79 135
79 137
79 138
79 140
79 141
79 143
79 147
79 153
79 154
79 155
79 158
79 161
79 162
79 165
79 166
79 167
79 171
80 81
80 85
80 91
80 92
80 94
80 95
80 96
80 98
80 100
80 101
80 102
80 103
80 108
80 110
80 114
80 116
80 118
80 119
80 123
80 124
80 126
80 128
80 129
80 131
80 133
80 136
80 141
80 142
80 143
80 146
80 150
80 151
80 152
80 154
80 155
80 157
80 161
80 162
80 169
80 170
80 171
81 101
81 103
81 114
81 116
81 119
81 123
81 126
81 129
81 131
81 133
81 141
81 142
81 150
81 152
81 157
81 169
81 170
82 83
82 84
82 87
82 89
82 96
82 98
82 102
82 110
82 113
82 118
82 124
82 126
82 127
82 132
82 140
82 141
82 143
82 158
82 171
83 87
83 88
83 89
83 95
83 98
83 102
83 105
83 110
83 113
83 117
83 118
83 121
83 122
83 124
83 127
83 130
83 132
83 140
83 141
83 143
83 147
83 156
83 158
83 169
83 171
84 85
84 89
84 91
84 92
84 95
84 96
84 97
84 98
84 99
84 100
84 102
84 104
84 106
84 108
84 110
84 113
84 114
84 118
84 124
84 128
84 132
84 137
84 140
84 141
84 143
84 153
84 154
84 158
84 166
84 171
85 91
85 92
85 93
85 94
85 95
85 97
85 98
85 99
85 100
85 101
85 104
85 107
85 115
85 125
85 131
85 134
85 135
85 137
85 138
85 145
85 158
85 162
85 166
85 167
85 168
86 94
86 101
86 114
86 131
86 142
86 146
86 151
86 152
87 89
87 98
87 102
87 105
87 109
87 110
87 113
87 117
87 118
87 121
87 122
87 124
87 127
87 130
87 132
87 139
87 140
87 143
87 147
87 149
87 156
87 160
87 164
87 171
88 89
88 102
88 110
88 113
88 118
88 124
88 127
88 130
88 140
88 143
88 158
88 160
89 98
89 102
89 105
89 110
89 113
89 117
89 118
89 121
89 127
89 130
89 132
89 137
89 140
89 141
89 143
89 147
89 158
89 160
89 164
89 167
89 171
90 91
90 92
90 96
90 100
90 114
90 124
90 128
90 136
90 143
90 148
90 154
90 161
90 162
91 92
91 96
91 100
91 102
91 108
91 110
91 111
91 124
91 128
91 136
91 140
91 141
91 143
91 148
91 152
91 154
91 157
91 158
91 161
91 162
92 95
92 96
92 98
92 100
92 101
92 102
92 108
92 110
92 111
92 116
92 119
92 123
92 124
92 126
92 128
92 131
92 136
92 140
92 142
92 143
92 148
92 150
92 151
92 152
92 153
92 154
92 155
92 158
92 161
92 162
92 165
92 166
92 168
92 170
93 97
93 98
93 99
93 104
93 118
93 125
93 134
93 135
93 138
93 140
93 141
93 143
93 145
93 153
93 158
93 165
93 166
93 168
93 171
94 95
94 98
94 99
94 101
94 102
94 103
94 107
94 114
94 115
94 116
94 118
94 123
94 126
94 129
94 131
94 134
94 138
94 140
94 141
94 145
94 146
94 151
94 152
94 155
94 157
94 158
94 169
94 170
94 171
95 97
95 98
95 99
95 101
95 102
95 103
95 104
95 106
95 107
95 108
95 110
95 113
95 114
95 115
95 116
95 118
95 124
95 125
95 126
95 127
95 129
95 131
95 135
95 137
95 140
95 141
95 143
95 145
95 150
95 151
95 152
95 153
95 154
95 157
95 158
95 165
95 166
95 167
95 168
95 171
96 98
96 100
96 101
96 102
96 110
96 111
96 114
96 116
96 118
96 119
96 124
96 126
96 128
96 131
96 136
96 140
96 141
96 142
96 143
96 148
96 150
96 151
96 153
96 154
96 158
96 161
96 162
96 166
96 168
96 169
96 170
96 171
97 98
97 99
97 102
97 104
97 106
97 108
97 110
97 125
97 134
97 135
97 137
97 138
97 140
97 141
97 143
97 153
97 158
97 165
97 166
97 167
97 168
98 99
98 100
98 101
98 102
98 103
98 104
98 107
98 108
98 110
98 113
98 114
98 115
98 118
98 119
98 124
98 125
98 126
98 127
98 131
98 132
98 134
98 135
98 137
98 138
98 140
98 141
98 143
98 145
98 147
98 150
98 151
98 152
98 153
98 154
98 155
98 157
98 158
98 161
98 165
98 166
98 168
98 171
99 102
99 106
99 110
99 115
99 118
99 125
99 137
99 140
99 141
99 153
99 154
99 158
99 165
99 166
99 167
99 168
99 171
100 101
100 102
100 108
100 110
100 111
100 114
100 119
100 124
100 126
100 128
100 131
100 134
100 135
100 136
100 138
100 140
100 141
100 142
100 143
100 145
100 148
100 153
100 154
100 155
100 158
100 161
100 162
100 168
100 170
101 102
101 103
101 110
101 114
101 116
101 118
101 119
101 123
101 124
101 126
101 128
101 129
101 131
101 133
101 136
101 140
101 141
101 142
101 143
101 146
101 150
101 151
101 152
101 153
101 154
101 155
101 157
101 158
101 161
101 162
101 165
101 169
101 170
102 103
102 108
102 110
102 113
102 114
102 115
102 116
102 117
102 118
102 119
102 121
102 124
102 126
102 127
102 128
102 130
102 131
102 132
102 135
102 136
102 137
102 140
102 141
102 143
102 146
102 147
102 148
102 153
102 154
102 155
102 157
102 158
102 160
102 161
102 166
102 168
102 169
102 170
102 171
103 108
103 114
103 116
103 119
103 123
103 125
103 126
103 129
103 131
103 133
103 141
103 142
103 150
103 151
103 152
103 155
103 157
103 169
103 170
104 106
104 110
104 118
104 125
104 135
104 137
104 140
104 141
104 143
104 153
104 158
104 166
104 167
104 168
105 109
105 117
105 118
105 120
105 121
105 122
105 127
105 130
105 132
105 147
105 149
105 156
105 160
105 163
105 164
106 108
106 110
106 125
106 137
106 140
106 141
106 143
106 153
106 158
106 166
106 167
106 168
107 115
107 125
107 131
107 134
107 135
107 138
107 141
107 145
107 158
107 165
107 168
107 171
108 110
108 114
108 129
108 137
108 140
108 141
108 152
108 154
108 157
108 165
108 167
109 117
109 118
109 120
109 121
109 122
109 130
109 132
109 147
109 156
109 160
109 163
109 164
110 111
110 112
110 113
110 114
110 115
110 118
110 119
110 124
110 125
110 126
110 127
110 128
110 130
110 131
110 132
110 134
110 135
110 136
110 137
110 138
110 140
110 141
110 143
110 147
110 150
110 152
110 153
110 154
110 155
110 158
110 160
110 161
110 165
110 166
110 167
110 168
110 169
110 170
110 171
111 124
111 128
111 136
111 148
111 154
111 161
111 162
112 131
112 140
112 158
113 117
113 118
113 121
113 124
113 127
113 130
113 132
113 140
113 141
113 143
113 147
113 158
113 164
113 171
114 116
114 118
114 119
114 123
114 126
114 129
114 131
114 133
114 136
114 140
114 141
114 142
114 143
114 146
114 150
114 151
114 152
114 155
114 157
114 162
114 169
114 170
114 171
115 125
115 134
115 135
115 138
115 140
115 141
115 143
115 145
115 158
115 165
115 166
115 167
115 168
115 171
116 119
116 123
116 125
116 126
116 129
116 131
116 133
116 140
116 141
116 142
116 145
116 150
116 151
116 152
116 155
116 157
116 169
116 170
117 118
117 121
117 122
117 127
117 130
117 132
117 143
117 147
117 149
117 156
117 160
117 163
117 164
118 121
118 124
118 125
118 126
118 127
118 130
118 131
118 132
118 134
118 135
118 137
118 138
118 140
118 141
118 143
118 147
118 149
118 153
118 155
118 158
118 160
118 164
118 165
118 166
118 171
119 123
119 125
119 126
119 129
119 131
119 133
119 136
119 142
119 148
119 150
119 152
119 155
119 157
119 158
119 161
119 169
119 170
120 147
120 156
120 160
120 163
120 164
121 122
121 127
121 130
121 132
121 140
121 143
121 147
121 156
121 160
121 164
121 171
122 127
122 147
122 149
122 156
122 159
122 160
122 164
123 126
123 129
123 131
123 133
123 142
123 146
123 150
123 151
123 152
123 154
123 155
123 157
123 169
123 170
124 126
124 127
124 130
124 131
124 136
124 140
124 141
124 143
124 148
124 150
124 153
124 158
124 161
124 168
124 169
124 171
125 134
125 135
125 137
125 138
125 140
125 141
125 143
125 145
125 152
125 153
125 157
125 158
125 165
125 166
125 167
125 168
125 171
126 128
126 129
126 131
126 133
126 134
126 135
126 138
126 140
126 141
126 142
126 143
126 144
126 146
126 150
126 152
126 155
126 157
126 158
126 161
126 169
126 170
126 171
127 130
127 132
127 140
127 141
127 143
127 147
127 156
127 158
127 169
127 171
128 136
128 140
128 143
128 148
128 154
128 158
128 161
128 162
129 131
129 133
129 142
129 150
129 152
129 155
129 157
129 169
129 170
130 140
130 143
130 149
130 156
130 160
131 133
131 136
131 140
131 141
131 142
131 143
131 144
131 145
131 146
131 151
131 152
131 153
131 155
131 157
131 158
131 161
131 162
131 169
131 170
131 171
132 139
132 140
132 143
132 147
132 158
132 164
132 171
133 141
133 142
133 150
133 152
133 157
133 169
133 170
134 135
134 137
134 138
134 145
134 152
134 153
134 158
134 162
134 165
134 166
134 167
134 168
134 171
135 137
135 138
135 141
135 145
135 152
135 153
135 155
135 158
135 162
135 165
135 166
135 167
135 168
135 171
136 140
136 142
136 148
136 153
136 154
136 158
136 161
136 162
136 169
136 170
137 138
137 140
137 141
137 143
137 145
137 153
137 158
137 165
137 166
137 167
137 168
137 171
138 145
138 152
138 153
138 158
138 162
138 165
138 166
138 167
138 168
138 171
139 147
140 141
140 143
140 145
140 147
140 150
140 153
140 154
140 158
140 162
140 165
140 166
140 167
140 168
140 169
140 171
141 143
141 145
141 151
141 152
141 153
141 154
141 155
141 157
141 158
141 165
141 166
141 167
141 168
141 171
142 146
142 150
142 151
142 152
142 155
142 157
142 161
142 162
142 169
142 170
143 147
143 149
143 153
143 156
143 158
143 160
143 161
143 166
143 167
143 169
143 170
143 171
144 155
145 152
145 165
145 168
146 169
146 170
147 149
147 156
147 160
147 163
147 164
147 171
148 154
148 161
148 162
149 159
149 160
149 164
150 151
150 152
150 154
150 157
150 158
150 162
150 169
150 170
151 152
151 157
151 169
151 170
151 171
152 155
152 157
152 169
152 170
152 171
153 154
153 158
153 165
153 166
153 167
153 168
153 171
154 161
154 162
154 165
154 169
154 170
155 157
155 171
156 160
156 163
156 164
157 169
157 170
158 165
158 166
158 167
158 168
158 169
158 170
158 171
159 160
159 164
160 163
160 164
161 162
162 169
162 170
163 164
165 166
165 167
165 168
165 171
166 167
166 168
166 171
167 168
169 170
